(declare-const |__VERIFIER_assert__cond___17':150:168:175:288:295:303| Int)
(declare-const __VERIFIER_assert__cond___18 Int)
(declare-const havoc Int)
(declare-const |K:165:166:173:286:293:301| Int)
(declare-const |__VERIFIER_assert__cond___18':151:171:178:291:298:306| Int)
(declare-const |main____CPAchecker_TMP_0':148:169:176:289:296:304| Int)
(declare-const |havoc:3:62:300| Int)
(declare-const main____CPAchecker_TMP_0___0 Int)
(declare-const __VERIFIER_assert__cond___17 Int)
(declare-const |main__t':147:167:174:287:294:302| Int)
(declare-const |main____CPAchecker_TMP_0___0':149:172:179:292:299:307| Int)
(declare-const |__tmp_383_0':146:170:177:290:297:305| Int)
(assert (and (<= (+ (- havoc) 1) 0) (not (= (+ (- havoc) 1) 0))
               (= |havoc:3:62:300| 0)
               (not (= (ite (<= (+ (- havoc) 1) 0) 1 0) 0))
               (or (not (<= (- |K:165:166:173:286:293:301|) 0))
                     (= (+ |main__t':147:167:174:287:294:302|
                             (- |K:165:166:173:286:293:301|)) 0))
               (or (not (and (<= (- |K:165:166:173:286:293:301|) 0)
                               (<= |K:165:166:173:286:293:301| 0)))
                     (= (+ (- __VERIFIER_assert__cond___17)
                             |__VERIFIER_assert__cond___17':150:168:175:288:295:303|) 0))
               (or (not (<= (+ (- |K:165:166:173:286:293:301|) 1) 0))
                     (= (+ |__VERIFIER_assert__cond___17':150:168:175:288:295:303|
                             -1) 0))
               (or (not (and (<= (- |K:165:166:173:286:293:301|) 0)
                               (<= |K:165:166:173:286:293:301| 0)))
                     (= (+ |main____CPAchecker_TMP_0':148:169:176:289:296:304|
                             (- |havoc:3:62:300|)) 0))
               (or (not (<= (+ (- |K:165:166:173:286:293:301|) 1) 0))
                     (= |main____CPAchecker_TMP_0':148:169:176:289:296:304| 0))
               (or (not (and (<= (- |K:165:166:173:286:293:301|) 0)
                               (<= |K:165:166:173:286:293:301| 0)))
                     (= (+ |__tmp_383_0':146:170:177:290:297:305|
                             (- |havoc:3:62:300|)) 0))
               (or (not (<= (+ (- |K:165:166:173:286:293:301|) 1) 0))
                     (= |__tmp_383_0':146:170:177:290:297:305| 0))
               (or (not (and (<= (- |K:165:166:173:286:293:301|) 0)
                               (<= |K:165:166:173:286:293:301| 0)))
                     (= (+ (- __VERIFIER_assert__cond___18)
                             |__VERIFIER_assert__cond___18':151:171:178:291:298:306|) 0))
               (or (not (<= (+ (- |K:165:166:173:286:293:301|) 1) 0))
                     (= (+ |__VERIFIER_assert__cond___18':151:171:178:291:298:306|
                             -1) 0))
               (or (not (and (<= (- |K:165:166:173:286:293:301|) 0)
                               (<= |K:165:166:173:286:293:301| 0)))
                     (= (+ (- main____CPAchecker_TMP_0___0)
                             |main____CPAchecker_TMP_0___0':149:172:179:292:299:307|) 0))
               (or (not (<= (+ (- |K:165:166:173:286:293:301|) 1) 0))
                     (= |main____CPAchecker_TMP_0___0':149:172:179:292:299:307| 0))
               (or (and (= |K:165:166:173:286:293:301| 0)
                          (= (+ __VERIFIER_assert__cond___18
                                  (- |__VERIFIER_assert__cond___18':151:171:178:291:298:306|)) 0)
                          (= (+ __VERIFIER_assert__cond___17
                                  (- |__VERIFIER_assert__cond___17':150:168:175:288:295:303|)) 0)
                          (= (+ main____CPAchecker_TMP_0___0
                                  (- |main____CPAchecker_TMP_0___0':149:172:179:292:299:307|)) 0)
                          (= (+ (- |main____CPAchecker_TMP_0':148:169:176:289:296:304|)
                                  |havoc:3:62:300|) 0)
                          (= (- |main__t':147:167:174:287:294:302|) 0)
                          (= (+ (- |__tmp_383_0':146:170:177:290:297:305|)
                                  |havoc:3:62:300|) 0))
                     (and (<= (+ (- |K:165:166:173:286:293:301|) 1) 0)
                            (= |havoc:3:62:300| 0) (= |havoc:3:62:300| 0)
                            (<= (+ (- havoc) 3) 0)
                            (= (+ |__VERIFIER_assert__cond___18':151:171:178:291:298:306|
                                    -1) 0)
                            (= (+ |__VERIFIER_assert__cond___17':150:168:175:288:295:303|
                                    -1) 0)
                            (= |main____CPAchecker_TMP_0':148:169:176:289:296:304| 0)
                            (= |main____CPAchecker_TMP_0___0':149:172:179:292:299:307| 0)
                            (= |__tmp_383_0':146:170:177:290:297:305| 0)
                            (<= (+ |main__t':147:167:174:287:294:302|
                                     (- havoc) 2) 0)
                            (<= (+ (- |main__t':147:167:174:287:294:302|) 1) 0)))
               (<= (- |K:165:166:173:286:293:301|) 0)
               (= |__tmp_383_0':146:170:177:290:297:305| 0)
               (= |main____CPAchecker_TMP_0':148:169:176:289:296:304| 0)
               (<= (- |main__t':147:167:174:287:294:302|) 0)
               (< (+ (- havoc) 1) 0)
               (= |__tmp_383_0':146:170:177:290:297:305| 0)
               (= |main____CPAchecker_TMP_0':148:169:176:289:296:304| 0)
               (= (+ |main__t':147:167:174:287:294:302| (- havoc) 2) 0)
               (not (= (ite (<= (+ (- |main__t':147:167:174:287:294:302|) -1) 0)
                            1 0) 0))
               (= (ite (<= (+ |main__t':147:167:174:287:294:302| (- havoc) 2) 0)
                       1 0) 0)))
(check-sat)
